NAME : amz2018.137826_137826.tour
COMMENT : Cost = 137826_137826
COMMENT : Found by LKH-AMZ [Keld Helsgaun] Sun May 11 15:05:26 2025
COMMENT : TW viol.: 0 #: 0
TYPE : TOUR
DIMENSION : 170
TOUR_SECTION
21
88
115
161
129
33
25
68
82
5
59
165
6
116
158
26
60
23
29
132
73
156
106
85
135
114
24
159
145
141
130
137
144
14
57
80
32
51
44
70
63
75
140
143
4
91
47
15
27
142
72
169
81
83
86
122
166
103
49
104
109
10
64
154
126
67
42
95
112
19
108
65
55
110
20
153
138
147
170
97
76
30
45
37
98
58
9
38
127
102
163
61
139
66
12
62
99
117
125
113
84
69
124
40
71
121
13
90
164
48
39
134
50
111
146
148
92
105
152
160
77
78
149
53
162
123
7
34
167
100
1
3
54
89
118
133
16
119
18
150
101
93
128
131
31
35
17
2
168
41
56
87
11
36
22
43
52
8
79
120
157
151
74
107
94
28
46
155
96
136
-1
EOF
